c 0.00573420524597168 (encode time in sec)
p cnf 280 438
1 2 3 4 5 0
1 2 3 -4 5 0
1 2 -3 4 6 0
1 2 -3 -4 5 0
1 -2 3 4 6 0
1 -2 3 -4 5 0
1 -2 -3 4 6 0
1 -2 -3 -4 5 0
-1 2 3 4 6 0
-1 2 3 -4 5 0
-1 2 -3 4 6 0
-1 2 -3 -4 5 0
-1 -2 3 4 6 0
-1 -2 3 -4 5 0
-1 -2 -3 4 0
-1 -2 -3 -4 0
7 1 2 3 4 25 0
7 1 2 3 -4 26 0
7 1 2 -3 4 8 0
7 1 2 -3 -4 9 0
7 1 -2 3 4 10 0
7 1 -2 3 -4 11 0
7 1 -2 -3 4 12 0
7 1 -2 -3 -4 13 0
7 -1 2 3 4 14 0
7 -1 2 3 -4 15 0
7 -1 2 -3 4 31 0
7 -1 2 -3 -4 21 0
7 -1 -2 3 4 22 0
7 -1 -2 3 -4 23 0
-7 1 2 3 4 34 0
-7 1 2 3 -4 16 0
-7 1 2 -3 4 17 0
-7 1 2 -3 -4 30 0
-7 1 -2 3 4 35 0
-7 1 -2 3 -4 19 0
-7 1 -2 -3 4 24 0
-7 1 -2 -3 -4 18 0
-7 -1 2 3 4 32 0
-7 -1 2 3 -4 27 0
-7 -1 2 -3 4 20 0
-7 -1 2 -3 -4 28 0
-7 -1 -2 3 4 29 0
-7 -1 -2 3 -4 33 0
36 37 38 39 7 1 2 3 4 128 0
36 37 38 39 7 1 2 3 -4 66 0
36 37 38 39 7 1 2 -3 4 221 0
36 37 38 39 7 1 2 -3 -4 40 0
36 37 38 39 7 1 -2 3 4 161 0
36 37 38 39 7 1 -2 3 -4 75 0
36 37 38 39 7 1 -2 -3 4 129 0
36 37 38 39 7 1 -2 -3 -4 67 0
36 37 38 39 7 -1 2 3 4 130 0
36 37 38 39 7 -1 2 3 -4 175 0
36 37 38 39 7 -1 2 -3 4 251 0
36 37 38 39 7 -1 2 -3 -4 192 0
36 37 38 39 7 -1 -2 3 4 144 0
36 37 38 39 7 -1 -2 3 -4 41 0
36 37 38 39 -7 1 2 3 4 209 0
36 37 38 39 -7 1 2 3 -4 162 0
36 37 38 39 -7 1 2 -3 4 87 0
36 37 38 39 -7 1 2 -3 -4 137 0
36 37 38 39 -7 1 -2 3 4 252 0
36 37 38 39 -7 1 -2 3 -4 111 0
36 37 38 39 -7 1 -2 -3 4 204 0
36 37 38 39 -7 1 -2 -3 -4 58 0
36 37 38 39 -7 -1 2 3 4 261 0
36 37 38 39 -7 -1 2 3 -4 270 0
36 37 38 39 -7 -1 2 -3 4 167 0
36 37 38 39 -7 -1 2 -3 -4 59 0
36 37 38 39 -7 -1 -2 3 4 140 0
36 37 38 39 -7 -1 -2 3 -4 183 0
36 37 38 -39 7 1 2 3 4 264 0
36 37 38 -39 7 1 2 3 -4 93 0
36 37 38 -39 7 1 2 -3 4 221 0
36 37 38 -39 7 1 2 -3 -4 40 0
36 37 38 -39 7 1 -2 3 4 94 0
36 37 38 -39 7 1 -2 3 -4 95 0
36 37 38 -39 7 1 -2 -3 4 265 0
36 37 38 -39 7 1 -2 -3 -4 222 0
36 37 38 -39 7 -1 2 3 4 232 0
36 37 38 -39 7 -1 2 3 -4 223 0
36 37 38 -39 7 -1 2 -3 4 96 0
36 37 38 -39 7 -1 2 -3 -4 44 0
36 37 38 -39 7 -1 -2 3 4 81 0
36 37 38 -39 7 -1 -2 3 -4 266 0
36 37 38 -39 -7 1 2 3 4 209 0
36 37 38 -39 -7 1 2 3 -4 193 0
36 37 38 -39 -7 1 2 -3 4 64 0
36 37 38 -39 -7 1 2 -3 -4 236 0
36 37 38 -39 -7 1 -2 3 4 210 0
36 37 38 -39 -7 1 -2 3 -4 53 0
36 37 38 -39 -7 1 -2 -3 4 163 0
36 37 38 -39 -7 1 -2 -3 -4 78 0
36 37 38 -39 -7 -1 2 3 4 186 0
36 37 38 -39 -7 -1 2 3 -4 154 0
36 37 38 -39 -7 -1 2 -3 4 167 0
36 37 38 -39 -7 -1 2 -3 -4 174 0
36 37 38 -39 -7 -1 -2 3 4 140 0
36 37 38 -39 -7 -1 -2 3 -4 183 0
36 37 -38 39 7 1 2 3 4 278 0
36 37 -38 39 7 1 2 3 -4 190 0
36 37 -38 39 7 1 2 -3 4 97 0
36 37 -38 39 7 1 2 -3 -4 43 0
36 37 -38 39 7 1 -2 3 4 112 0
36 37 -38 39 7 1 -2 3 -4 75 0
36 37 -38 39 7 1 -2 -3 4 237 0
36 37 -38 39 7 1 -2 -3 -4 145 0
36 37 -38 39 7 -1 2 3 4 130 0
36 37 -38 39 7 -1 2 3 -4 164 0
36 37 -38 39 7 -1 2 -3 4 224 0
36 37 -38 39 7 -1 2 -3 -4 238 0
36 37 -38 39 7 -1 -2 3 4 144 0
36 37 -38 39 7 -1 -2 3 -4 113 0
36 37 -38 39 -7 1 2 3 4 217 0
36 37 -38 39 -7 1 2 3 -4 114 0
36 37 -38 39 -7 1 2 -3 4 87 0
36 37 -38 39 -7 1 2 -3 -4 218 0
36 37 -38 39 -7 1 -2 3 4 252 0
36 37 -38 39 -7 1 -2 3 -4 194 0
36 37 -38 39 -7 1 -2 -3 4 119 0
36 37 -38 39 -7 1 -2 -3 -4 146 0
36 37 -38 39 -7 -1 2 3 4 82 0
36 37 -38 39 -7 -1 2 3 -4 91 0
36 37 -38 39 -7 -1 2 -3 4 176 0
36 37 -38 39 -7 -1 2 -3 -4 174 0
36 37 -38 39 -7 -1 -2 3 4 277 0
36 37 -38 39 -7 -1 -2 3 -4 183 0
36 37 -38 -39 7 1 2 3 4 126 0
36 37 -38 -39 7 1 2 3 -4 190 0
36 37 -38 -39 7 1 2 -3 4 221 0
36 37 -38 -39 7 1 2 -3 -4 42 0
36 37 -38 -39 7 1 -2 3 4 239 0
36 37 -38 -39 7 1 -2 3 -4 253 0
36 37 -38 -39 7 1 -2 -3 4 191 0
36 37 -38 -39 7 1 -2 -3 -4 127 0
36 37 -38 -39 7 -1 2 3 4 225 0
36 37 -38 -39 7 -1 2 3 -4 195 0
36 37 -38 -39 7 -1 2 -3 4 45 0
36 37 -38 -39 7 -1 2 -3 -4 240 0
36 37 -38 -39 7 -1 -2 3 4 81 0
36 37 -38 -39 7 -1 -2 3 -4 267 0
36 37 -38 -39 -7 1 2 3 4 211 0
36 37 -38 -39 -7 1 2 3 -4 147 0
36 37 -38 -39 -7 1 2 -3 4 64 0
36 37 -38 -39 -7 1 2 -3 -4 218 0
36 37 -38 -39 -7 1 -2 3 4 252 0
36 37 -38 -39 -7 1 -2 3 -4 152 0
36 37 -38 -39 -7 1 -2 -3 4 231 0
36 37 -38 -39 -7 1 -2 -3 -4 98 0
36 37 -38 -39 -7 -1 2 3 4 241 0
36 37 -38 -39 -7 -1 2 3 -4 205 0
36 37 -38 -39 -7 -1 2 -3 4 167 0
36 37 -38 -39 -7 -1 2 -3 -4 196 0
36 37 -38 -39 -7 -1 -2 3 4 277 0
36 37 -38 -39 -7 -1 -2 3 -4 183 0
36 -37 38 39 7 1 2 3 4 278 0
36 -37 38 39 7 1 2 3 -4 66 0
36 -37 38 39 7 1 2 -3 4 97 0
36 -37 38 39 7 1 2 -3 -4 40 0
36 -37 38 39 7 1 -2 3 4 226 0
36 -37 38 39 7 1 -2 3 -4 227 0
36 -37 38 39 7 1 -2 -3 4 129 0
36 -37 38 39 7 1 -2 -3 -4 222 0
36 -37 38 39 7 -1 2 3 4 268 0
36 -37 38 39 7 -1 2 3 -4 165 0
36 -37 38 39 7 -1 2 -3 4 224 0
36 -37 38 39 7 -1 2 -3 -4 187 0
36 -37 38 39 7 -1 -2 3 4 46 0
36 -37 38 39 7 -1 -2 3 -4 41 0
36 -37 38 39 -7 1 2 3 4 177 0
36 -37 38 39 -7 1 2 3 -4 193 0
36 -37 38 39 -7 1 2 -3 4 76 0
36 -37 38 39 -7 1 2 -3 -4 269 0
36 -37 38 39 -7 1 -2 3 4 210 0
36 -37 38 39 -7 1 -2 3 -4 152 0
36 -37 38 39 -7 1 -2 -3 4 204 0
36 -37 38 39 -7 1 -2 -3 -4 122 0
36 -37 38 39 -7 -1 2 3 4 82 0
36 -37 38 39 -7 -1 2 3 -4 271 0
36 -37 38 39 -7 -1 2 -3 4 74 0
36 -37 38 39 -7 -1 2 -3 -4 83 0
36 -37 38 39 -7 -1 -2 3 4 159 0
36 -37 38 39 -7 -1 -2 3 -4 233 0
36 -37 38 -39 7 1 2 3 4 160 0
36 -37 38 -39 7 1 2 3 -4 93 0
36 -37 38 -39 7 1 2 -3 4 97 0
36 -37 38 -39 7 1 2 -3 -4 47 0
36 -37 38 -39 7 1 -2 3 4 112 0
36 -37 38 -39 7 1 -2 3 -4 197 0
36 -37 38 -39 7 1 -2 -3 4 84 0
36 -37 38 -39 7 1 -2 -3 -4 67 0
36 -37 38 -39 7 -1 2 3 4 166 0
36 -37 38 -39 7 -1 2 3 -4 165 0
36 -37 38 -39 7 -1 2 -3 4 224 0
36 -37 38 -39 7 -1 2 -3 -4 198 0
36 -37 38 -39 7 -1 -2 3 4 81 0
36 -37 38 -39 7 -1 -2 3 -4 131 0
36 -37 38 -39 -7 1 2 3 4 247 0
36 -37 38 -39 -7 1 2 3 -4 99 0
36 -37 38 -39 -7 1 2 -3 4 64 0
36 -37 38 -39 -7 1 2 -3 -4 172 0
36 -37 38 -39 -7 1 -2 3 4 88 0
36 -37 38 -39 -7 1 -2 3 -4 111 0
36 -37 38 -39 -7 1 -2 -3 4 242 0
36 -37 38 -39 -7 1 -2 -3 -4 58 0
36 -37 38 -39 -7 -1 2 3 4 82 0
36 -37 38 -39 -7 -1 2 3 -4 115 0
36 -37 38 -39 -7 -1 2 -3 4 74 0
36 -37 38 -39 -7 -1 2 -3 -4 59 0
36 -37 38 -39 -7 -1 -2 3 4 140 0
36 -37 38 -39 -7 -1 -2 3 -4 183 0
36 -37 -38 39 7 1 2 3 4 160 0
36 -37 -38 39 7 1 2 3 -4 190 0
36 -37 -38 39 7 1 2 -3 4 219 0
36 -37 -38 39 7 1 2 -3 -4 48 0
36 -37 -38 39 7 1 -2 3 4 132 0
36 -37 -38 39 7 1 -2 3 -4 75 0
36 -37 -38 39 7 1 -2 -3 4 129 0
36 -37 -38 39 7 1 -2 -3 -4 148 0
36 -37 -38 39 7 -1 2 3 4 100 0
36 -37 -38 39 7 -1 2 3 -4 195 0
36 -37 -38 39 7 -1 2 -3 4 224 0
36 -37 -38 39 7 -1 2 -3 -4 89 0
36 -37 -38 39 7 -1 -2 3 4 46 0
36 -37 -38 39 7 -1 -2 3 -4 168 0
36 -37 -38 39 -7 1 2 3 4 177 0
36 -37 -38 39 -7 1 2 3 -4 178 0
36 -37 -38 39 -7 1 2 -3 4 87 0
36 -37 -38 39 -7 1 2 -3 -4 188 0
36 -37 -38 39 -7 1 -2 3 4 88 0
36 -37 -38 39 -7 1 -2 3 -4 179 0
36 -37 -38 39 -7 1 -2 -3 4 204 0
36 -37 -38 39 -7 1 -2 -3 -4 254 0
36 -37 -38 39 -7 -1 2 3 4 82 0
36 -37 -38 39 -7 -1 2 3 -4 271 0
36 -37 -38 39 -7 -1 2 -3 4 106 0
36 -37 -38 39 -7 -1 2 -3 -4 196 0
36 -37 -38 39 -7 -1 -2 3 4 277 0
36 -37 -38 39 -7 -1 -2 3 -4 233 0
36 -37 -38 -39 7 1 2 3 4 278 0
36 -37 -38 -39 7 1 2 3 -4 138 0
36 -37 -38 -39 7 1 2 -3 4 149 0
36 -37 -38 -39 7 1 2 -3 -4 42 0
36 -37 -38 -39 7 1 -2 3 4 226 0
36 -37 -38 -39 7 1 -2 3 -4 212 0
36 -37 -38 -39 7 1 -2 -3 4 279 0
36 -37 -38 -39 7 1 -2 -3 -4 54 0
36 -37 -38 -39 7 -1 2 3 4 199 0
36 -37 -38 -39 7 -1 2 3 -4 213 0
36 -37 -38 -39 7 -1 2 -3 4 85 0
36 -37 -38 -39 7 -1 2 -3 -4 198 0
36 -37 -38 -39 7 -1 -2 3 4 255 0
36 -37 -38 -39 7 -1 -2 3 -4 266 0
36 -37 -38 -39 -7 1 2 3 4 177 0
36 -37 -38 -39 -7 1 2 3 -4 162 0
36 -37 -38 -39 -7 1 2 -3 4 116 0
36 -37 -38 -39 -7 1 2 -3 -4 269 0
36 -37 -38 -39 -7 1 -2 3 4 51 0
36 -37 -38 -39 -7 1 -2 3 -4 133 0
36 -37 -38 -39 -7 1 -2 -3 4 117 0
36 -37 -38 -39 -7 1 -2 -3 -4 122 0
36 -37 -38 -39 -7 -1 2 3 4 261 0
36 -37 -38 -39 -7 -1 2 3 -4 205 0
36 -37 -38 -39 -7 -1 2 -3 4 106 0
36 -37 -38 -39 -7 -1 2 -3 -4 101 0
36 -37 -38 -39 -7 -1 -2 3 4 169 0
36 -37 -38 -39 -7 -1 -2 3 -4 183 0
-36 37 38 39 7 1 2 3 4 278 0
-36 37 38 39 7 1 2 3 -4 158 0
-36 37 38 39 7 1 2 -3 4 49 0
-36 37 38 39 7 1 2 -3 -4 155 0
-36 37 38 39 7 1 -2 3 4 239 0
-36 37 38 39 7 1 -2 3 -4 170 0
-36 37 38 39 7 1 -2 -3 4 237 0
-36 37 38 39 7 1 -2 -3 -4 68 0
-36 37 38 39 7 -1 2 3 4 268 0
-36 37 38 39 7 -1 2 3 -4 180 0
-36 37 38 39 7 -1 2 -3 4 248 0
-36 37 38 39 7 -1 2 -3 -4 198 0
-36 37 38 39 7 -1 -2 3 4 255 0
-36 37 38 39 7 -1 -2 3 -4 266 0
-36 37 38 39 -7 1 2 3 4 211 0
-36 37 38 39 -7 1 2 3 -4 162 0
-36 37 38 39 -7 1 2 -3 4 116 0
-36 37 38 39 -7 1 2 -3 -4 269 0
-36 37 38 39 -7 1 -2 3 4 210 0
-36 37 38 39 -7 1 -2 3 -4 133 0
-36 37 38 39 -7 1 -2 -3 4 163 0
-36 37 38 39 -7 1 -2 -3 -4 214 0
-36 37 38 39 -7 -1 2 3 4 92 0
-36 37 38 39 -7 -1 2 3 -4 271 0
-36 37 38 39 -7 -1 2 -3 4 176 0
-36 37 38 39 -7 -1 2 -3 -4 60 0
-36 37 38 39 -7 -1 -2 3 4 272 0
-36 37 38 39 -7 -1 -2 3 -4 181 0
-36 37 38 -39 7 1 2 3 4 249 0
-36 37 38 -39 7 1 2 3 -4 243 0
-36 37 38 -39 7 1 2 -3 4 62 0
-36 37 38 -39 7 1 2 -3 -4 155 0
-36 37 38 -39 7 1 -2 3 4 226 0
-36 37 38 -39 7 1 -2 3 -4 184 0
-36 37 38 -39 7 1 -2 -3 4 279 0
-36 37 38 -39 7 1 -2 -3 -4 68 0
-36 37 38 -39 7 -1 2 3 4 100 0
-36 37 38 -39 7 -1 2 3 -4 244 0
-36 37 38 -39 7 -1 2 -3 4 61 0
-36 37 38 -39 7 -1 2 -3 -4 238 0
-36 37 38 -39 7 -1 -2 3 4 228 0
-36 37 38 -39 7 -1 -2 3 -4 220 0
-36 37 38 -39 -7 1 2 3 4 171 0
-36 37 38 -39 -7 1 2 3 -4 55 0
-36 37 38 -39 -7 1 2 -3 4 273 0
-36 37 38 -39 -7 1 2 -3 -4 108 0
-36 37 38 -39 -7 1 -2 3 4 229 0
-36 37 38 -39 -7 1 -2 3 -4 179 0
-36 37 38 -39 -7 1 -2 -3 4 242 0
-36 37 38 -39 -7 1 -2 -3 -4 98 0
-36 37 38 -39 -7 -1 2 3 4 134 0
-36 37 38 -39 -7 -1 2 3 -4 91 0
-36 37 38 -39 -7 -1 2 -3 4 256 0
-36 37 38 -39 -7 -1 2 -3 -4 101 0
-36 37 38 -39 -7 -1 -2 3 4 277 0
-36 37 38 -39 -7 -1 -2 3 -4 183 0
-36 37 -38 39 7 1 2 3 4 278 0
-36 37 -38 39 7 1 2 3 -4 138 0
-36 37 -38 39 7 1 2 -3 4 135 0
-36 37 -38 39 7 1 2 -3 -4 48 0
-36 37 -38 39 7 1 -2 3 4 262 0
-36 37 -38 39 7 1 -2 3 -4 123 0
-36 37 -38 39 7 1 -2 -3 4 139 0
-36 37 -38 39 7 1 -2 -3 -4 52 0
-36 37 -38 39 7 -1 2 3 4 232 0
-36 37 -38 39 7 -1 2 3 -4 213 0
-36 37 -38 39 7 -1 2 -3 4 182 0
-36 37 -38 39 7 -1 2 -3 -4 230 0
-36 37 -38 39 7 -1 -2 3 4 228 0
-36 37 -38 39 7 -1 -2 3 -4 245 0
-36 37 -38 39 -7 1 2 3 4 143 0
-36 37 -38 39 -7 1 2 3 -4 147 0
-36 37 -38 39 -7 1 2 -3 4 118 0
-36 37 -38 39 -7 1 2 -3 -4 120 0
-36 37 -38 39 -7 1 -2 3 4 200 0
-36 37 -38 39 -7 1 -2 3 -4 53 0
-36 37 -38 39 -7 1 -2 -3 4 242 0
-36 37 -38 39 -7 1 -2 -3 -4 146 0
-36 37 -38 39 -7 -1 2 3 4 92 0
-36 37 -38 39 -7 -1 2 3 -4 115 0
-36 37 -38 39 -7 -1 2 -3 4 65 0
-36 37 -38 39 -7 -1 2 -3 -4 257 0
-36 37 -38 39 -7 -1 -2 3 4 159 0
-36 37 -38 39 -7 -1 -2 3 -4 181 0
-36 37 -38 -39 7 1 2 3 4 150 0
-36 37 -38 -39 7 1 2 3 -4 243 0
-36 37 -38 -39 7 1 2 -3 4 102 0
-36 37 -38 -39 7 1 2 -3 -4 107 0
-36 37 -38 -39 7 1 -2 3 4 153 0
-36 37 -38 -39 7 1 -2 3 -4 253 0
-36 37 -38 -39 7 1 -2 -3 4 250 0
-36 37 -38 -39 7 1 -2 -3 -4 215 0
-36 37 -38 -39 7 -1 2 3 4 56 0
-36 37 -38 -39 7 -1 2 3 -4 244 0
-36 37 -38 -39 7 -1 2 -3 4 61 0
-36 37 -38 -39 7 -1 2 -3 -4 141 0
-36 37 -38 -39 7 -1 -2 3 4 90 0
-36 37 -38 -39 7 -1 -2 3 -4 220 0
-36 37 -38 -39 -7 1 2 3 4 143 0
-36 37 -38 -39 -7 1 2 3 -4 114 0
-36 37 -38 -39 -7 1 2 -3 4 207 0
-36 37 -38 -39 -7 1 2 -3 -4 57 0
-36 37 -38 -39 -7 1 -2 3 4 55 0
-36 37 -38 -39 -7 1 -2 3 -4 53 0
-36 37 -38 -39 -7 1 -2 -3 4 208 0
-36 37 -38 -39 -7 1 -2 -3 -4 214 0
-36 37 -38 -39 -7 -1 2 3 4 241 0
-36 37 -38 -39 -7 -1 2 3 -4 115 0
-36 37 -38 -39 -7 -1 2 -3 4 121 0
-36 37 -38 -39 -7 -1 2 -3 -4 196 0
-36 37 -38 -39 -7 -1 -2 3 4 109 0
-36 37 -38 -39 -7 -1 -2 3 -4 173 0
-36 -37 38 39 7 1 2 3 4 160 0
-36 -37 38 39 7 1 2 3 -4 158 0
-36 -37 38 39 7 1 2 -3 4 135 0
-36 -37 38 39 7 1 2 -3 -4 275 0
-36 -37 38 39 7 1 -2 3 4 153 0
-36 -37 38 39 7 1 -2 3 -4 110 0
-36 -37 38 39 7 1 -2 -3 4 189 0
-36 -37 38 39 7 1 -2 -3 -4 52 0
-36 -37 38 39 7 -1 2 3 4 77 0
-36 -37 38 39 7 -1 2 3 -4 213 0
-36 -37 38 39 7 -1 2 -3 4 216 0
-36 -37 38 39 7 -1 2 -3 -4 258 0
-36 -37 38 39 7 -1 -2 3 4 63 0
-36 -37 38 39 7 -1 -2 3 -4 86 0
-36 -37 38 39 -7 1 2 3 4 171 0
-36 -37 38 39 -7 1 2 3 -4 156 0
-36 -37 38 39 -7 1 2 -3 4 201 0
-36 -37 38 39 -7 1 2 -3 -4 57 0
-36 -37 38 39 -7 1 -2 3 4 206 0
-36 -37 38 39 -7 1 -2 3 -4 103 0
-36 -37 38 39 -7 1 -2 -3 4 69 0
-36 -37 38 39 -7 1 -2 -3 -4 274 0
-36 -37 38 39 -7 -1 2 3 4 105 0
-36 -37 38 39 -7 -1 2 3 -4 70 0
-36 -37 38 39 -7 -1 2 -3 4 71 0
-36 -37 38 39 -7 -1 2 -3 -4 280 0
-36 -37 38 39 -7 -1 -2 3 4 50 0
-36 -37 38 39 -7 -1 -2 3 -4 181 0
-36 -37 38 -39 7 1 2 3 4 249 0
-36 -37 38 -39 7 1 2 3 -4 158 0
-36 -37 38 -39 7 1 2 -3 4 62 0
-36 -37 38 -39 7 1 2 -3 -4 275 0
-36 -37 38 -39 7 1 -2 3 4 79 0
-36 -37 38 -39 7 1 -2 3 -4 235 0
-36 -37 38 -39 7 1 -2 -3 4 142 0
-36 -37 38 -39 7 1 -2 -3 -4 246 0
-36 -37 38 -39 7 -1 2 3 4 77 0
-36 -37 38 -39 7 -1 2 3 -4 276 0
-36 -37 38 -39 7 -1 2 -3 4 202 0
-36 -37 38 -39 7 -1 2 -3 -4 203 0
-36 -37 38 -39 7 -1 -2 3 4 151 0
-36 -37 38 -39 7 -1 -2 3 -4 263 0
-36 -37 38 -39 -7 1 2 3 4 171 0
-36 -37 38 -39 -7 1 2 3 -4 259 0
-36 -37 38 -39 -7 1 2 -3 4 136 0
-36 -37 38 -39 -7 1 2 -3 -4 80 0
-36 -37 38 -39 -7 1 -2 3 4 125 0
-36 -37 38 -39 -7 1 -2 3 -4 185 0
-36 -37 38 -39 -7 1 -2 -3 4 124 0
-36 -37 38 -39 -7 1 -2 -3 -4 254 0
-36 -37 38 -39 -7 -1 2 3 4 157 0
-36 -37 38 -39 -7 -1 2 3 -4 72 0
-36 -37 38 -39 -7 -1 2 -3 4 73 0
-36 -37 38 -39 -7 -1 2 -3 -4 104 0
-36 -37 38 -39 -7 -1 -2 3 4 260 0
-36 -37 38 -39 -7 -1 -2 3 -4 234 0
-36 -37 -38 39 0
-36 -37 -38 -39 0
